(set-option :produce-models true); benchmark generated from python API
(set-info :status unknown)
(declare-fun l_1_0_33 () Real)
(declare-fun l_1_0_32 () Real)
(declare-fun l_1_0_26 () Real)
(declare-fun l_1_0_23 () Real)
(declare-fun l_1_0_13 () Real)
(declare-fun _a_0_ () Real)
(declare-fun l_1_0_34 () Real)
(declare-fun l_1_0_31 () Real)
(declare-fun l_1_0_30 () Real)
(declare-fun l_1_0_19 () Real)
(declare-fun l_1_0_17 () Real)
(declare-fun l_1_0_11 () Real)
(declare-fun l_1_0_1 () Real)
(declare-fun _a_1_ () Real)
(declare-fun l_1_0_4 () Real)
(declare-fun l_1_0_36 () Real)
(declare-fun l_1_0_28 () Real)
(declare-fun l_1_0_27 () Real)
(declare-fun l_1_0_24 () Real)
(declare-fun l_1_0_18 () Real)
(declare-fun l_1_0_16 () Real)
(declare-fun _a_2_ () Real)
(declare-fun l_1_0_6 () Real)
(declare-fun l_1_0_5 () Real)
(declare-fun l_1_0_35 () Real)
(declare-fun l_1_0_29 () Real)
(declare-fun l_1_0_15 () Real)
(declare-fun _a_3_ () Real)
(declare-fun l_1_0_9 () Real)
(declare-fun l_1_0_8 () Real)
(declare-fun l_1_0_37 () Real)
(declare-fun l_1_0_3 () Real)
(declare-fun l_1_0_25 () Real)
(declare-fun l_1_0_21 () Real)
(declare-fun l_1_0_2 () Real)
(declare-fun l_1_0_14 () Real)
(declare-fun l_1_0_12 () Real)
(declare-fun l_1_0_7 () Real)
(declare-fun l_1_0_38 () Real)
(declare-fun l_1_0_22 () Real)
(declare-fun l_1_0_20 () Real)
(declare-fun l_1_0_10 () Real)
(declare-fun l_1_1_8 () Real)
(declare-fun l_1_1_5 () Real)
(declare-fun l_1_1_33 () Real)
(declare-fun l_1_1_32 () Real)
(declare-fun l_1_1_28 () Real)
(declare-fun l_1_1_24 () Real)
(declare-fun l_1_1_23 () Real)
(declare-fun l_1_1_2 () Real)
(declare-fun l_1_1_15 () Real)
(declare-fun l_1_1_13 () Real)
(declare-fun l_1_1_26 () Real)
(declare-fun l_1_1_21 () Real)
(declare-fun l_1_1_16 () Real)
(declare-fun l_1_1_14 () Real)
(declare-fun l_1_1_1 () Real)
(declare-fun l_1_1_9 () Real)
(declare-fun l_1_1_4 () Real)
(declare-fun l_1_1_35 () Real)
(declare-fun l_1_1_34 () Real)
(declare-fun l_1_1_31 () Real)
(declare-fun l_1_1_3 () Real)
(declare-fun l_1_1_29 () Real)
(declare-fun l_1_1_22 () Real)
(declare-fun l_1_1_11 () Real)
(declare-fun l_1_1_10 () Real)
(declare-fun l_1_1_7 () Real)
(declare-fun l_1_1_6 () Real)
(declare-fun l_1_1_36 () Real)
(declare-fun l_1_1_27 () Real)
(declare-fun l_1_1_25 () Real)
(declare-fun l_1_1_17 () Real)
(declare-fun l_1_1_30 () Real)
(declare-fun l_1_1_20 () Real)
(declare-fun l_1_1_37 () Real)
(declare-fun l_1_1_19 () Real)
(declare-fun l_1_1_12 () Real)
(declare-fun l_1_1_38 () Real)
(declare-fun l_1_1_18 () Real)
(declare-fun l_1_2_7 () Real)
(declare-fun l_1_2_6 () Real)
(declare-fun l_1_2_45 () Real)
(declare-fun l_1_2_44 () Real)
(declare-fun l_1_2_42 () Real)
(declare-fun l_1_2_41 () Real)
(declare-fun l_1_2_40 () Real)
(declare-fun l_1_2_38 () Real)
(declare-fun l_1_2_35 () Real)
(declare-fun l_1_2_34 () Real)
(declare-fun l_1_2_3 () Real)
(declare-fun l_1_2_25 () Real)
(declare-fun l_1_2_23 () Real)
(declare-fun l_1_2_16 () Real)
(declare-fun l_1_2_15 () Real)
(declare-fun l_1_2_1 () Real)
(declare-fun l_1_2_43 () Real)
(declare-fun l_1_2_28 () Real)
(declare-fun l_1_2_27 () Real)
(declare-fun l_1_2_26 () Real)
(declare-fun l_1_2_21 () Real)
(declare-fun l_1_2_19 () Real)
(declare-fun l_1_2_10 () Real)
(declare-fun l_1_2_48 () Real)
(declare-fun l_1_2_33 () Real)
(declare-fun l_1_2_32 () Real)
(declare-fun l_1_2_30 () Real)
(declare-fun l_1_2_24 () Real)
(declare-fun l_1_2_14 () Real)
(declare-fun l_1_2_13 () Real)
(declare-fun l_1_2_12 () Real)
(declare-fun l_1_2_37 () Real)
(declare-fun l_1_2_22 () Real)
(declare-fun l_1_2_8 () Real)
(declare-fun l_1_2_5 () Real)
(declare-fun l_1_2_47 () Real)
(declare-fun l_1_2_46 () Real)
(declare-fun l_1_2_4 () Real)
(declare-fun l_1_2_39 () Real)
(declare-fun l_1_2_36 () Real)
(declare-fun l_1_2_20 () Real)
(declare-fun l_1_2_2 () Real)
(declare-fun l_1_2_18 () Real)
(declare-fun l_1_2_17 () Real)
(declare-fun l_1_2_11 () Real)
(declare-fun l_1_2_9 () Real)
(declare-fun l_1_2_49 () Real)
(declare-fun l_1_2_29 () Real)
(declare-fun l_1_2_50 () Real)
(declare-fun l_1_2_31 () Real)
(declare-fun l_1_3_8 () Real)
(declare-fun l_1_3_4 () Real)
(declare-fun l_1_3_33 () Real)
(declare-fun l_1_3_32 () Real)
(declare-fun l_1_3_29 () Real)
(declare-fun l_1_3_23 () Real)
(declare-fun l_1_3_21 () Real)
(declare-fun l_1_3_18 () Real)
(declare-fun l_1_3_14 () Real)
(declare-fun l_1_3_12 () Real)
(declare-fun l_1_3_9 () Real)
(declare-fun l_1_3_6 () Real)
(declare-fun l_1_3_25 () Real)
(declare-fun l_1_3_17 () Real)
(declare-fun l_1_3_11 () Real)
(declare-fun l_1_3_5 () Real)
(declare-fun l_1_3_34 () Real)
(declare-fun l_1_3_31 () Real)
(declare-fun l_1_3_22 () Real)
(declare-fun l_1_3_2 () Real)
(declare-fun l_1_3_10 () Real)
(declare-fun l_1_3_20 () Real)
(declare-fun l_1_3_15 () Real)
(declare-fun l_1_3_36 () Real)
(declare-fun l_1_3_30 () Real)
(declare-fun l_1_3_28 () Real)
(declare-fun l_1_3_27 () Real)
(declare-fun l_1_3_24 () Real)
(declare-fun l_1_3_13 () Real)
(declare-fun l_1_3_3 () Real)
(declare-fun l_1_3_1 () Real)
(declare-fun l_1_3_35 () Real)
(declare-fun l_1_3_16 () Real)
(declare-fun l_1_3_7 () Real)
(declare-fun l_1_3_37 () Real)
(declare-fun l_1_3_19 () Real)
(declare-fun l_1_3_38 () Real)
(declare-fun l_1_3_26 () Real)
(assert
 (let ((?x129 (* l_1_0_33 l_1_0_33)))
 (let ((?x2508 (- (- (- (- (- _a_0_ l_1_0_13) l_1_0_23) l_1_0_26) l_1_0_32) ?x129)))
 (= ?x2508 0.0))))
(assert
 (let ((?x998 (+ (- (+ (- (+ _a_1_ l_1_0_1) l_1_0_11) l_1_0_17) l_1_0_19) l_1_0_30)))
 (= (- (- ?x998 l_1_0_31) (* (* 2.0 l_1_0_33) l_1_0_34)) 0.0)))
(assert
 (let ((?x118 (+ (+ (- (- (+ _a_2_ l_1_0_16) l_1_0_18) l_1_0_24) l_1_0_27) l_1_0_28)))
 (= (- (- ?x118 (* (* 2.0 l_1_0_33) l_1_0_36)) l_1_0_4) 0.0)))
(assert
 (let ((?x2403 (* l_1_0_35 l_1_0_35)))
 (let ((?x2404 (- (- (+ (- _a_3_ l_1_0_15) l_1_0_29) (* l_1_0_34 l_1_0_34)) ?x2403)))
 (= (- (+ ?x2404 l_1_0_5) l_1_0_6) 0.0))))
(assert
 (let ((?x2323 (- (+ (- (+ (- l_1_0_12) l_1_0_14) l_1_0_2) l_1_0_21) l_1_0_25)))
 (let ((?x2330 (- (- (+ ?x2323 l_1_0_3) (* (* 2.0 l_1_0_34) l_1_0_36)) (* (* 2.0 l_1_0_35) l_1_0_37))))
 (= (- (+ ?x2330 l_1_0_8) l_1_0_9) 0.0))))
(assert
 (let ((?x2197 (* l_1_0_38 l_1_0_38)))
 (let ((?x2195 (* l_1_0_37 l_1_0_37)))
 (let ((?x2196 (- (- (- (+ l_1_0_10 l_1_0_20) l_1_0_22) (* l_1_0_36 l_1_0_36)) ?x2195)))
 (= (- (- ?x2196 ?x2197) l_1_0_7) 0.0)))))
(assert
 (>= l_1_0_1 0.0))
(assert
 (>= l_1_0_2 0.0))
(assert
 (>= l_1_0_3 0.0))
(assert
 (>= l_1_0_4 0.0))
(assert
 (>= l_1_0_5 0.0))
(assert
 (>= l_1_0_6 0.0))
(assert
 (>= l_1_0_7 0.0))
(assert
 (>= l_1_0_8 0.0))
(assert
 (>= l_1_0_9 0.0))
(assert
 (>= l_1_0_10 0.0))
(assert
 (>= l_1_0_11 0.0))
(assert
 (>= l_1_0_12 0.0))
(assert
 (>= l_1_0_13 0.0))
(assert
 (>= l_1_0_14 0.0))
(assert
 (>= l_1_0_15 0.0))
(assert
 (>= l_1_0_16 0.0))
(assert
 (>= l_1_0_17 0.0))
(assert
 (>= l_1_0_18 0.0))
(assert
 (>= l_1_0_19 0.0))
(assert
 (>= l_1_0_20 0.0))
(assert
 (>= l_1_0_21 0.0))
(assert
 (>= l_1_0_22 0.0))
(assert
 (>= l_1_0_23 0.0))
(assert
 (>= l_1_0_24 0.0))
(assert
 (>= l_1_0_25 0.0))
(assert
 (>= l_1_0_26 0.0))
(assert
 (>= l_1_0_27 0.0))
(assert
 (>= l_1_0_28 0.0))
(assert
 (>= l_1_0_29 0.0))
(assert
 (>= l_1_0_30 0.0))
(assert
 (>= l_1_0_31 0.0))
(assert
 (>= l_1_0_32 0.0))
(assert
 (>= l_1_0_33 0.0))
(assert
 (>= l_1_0_35 0.0))
(assert
 (>= l_1_0_38 0.0))
(assert
 (let ((?x1966 (* 5.0 l_1_1_8)))
 (let ((?x1964 (* 25.0 l_1_1_5)))
 (let ((?x1962 (* l_1_1_33 l_1_1_33)))
 (let ((?x1956 (* 5.0 l_1_1_23)))
 (let ((?x2050 (* 5.0 l_1_1_13)))
 (let ((?x2046 (* _a_0_ l_1_1_21)))
 (let ((?x2045 (* _a_0_ l_1_1_16)))
 (let ((?x2047 (- (- (- (* (* 5.0 _a_0_) l_1_1_1) (* _a_0_ l_1_1_14)) ?x2045) ?x2046)))
 (let ((?x1955 (- (- (+ (+ ?x2047 (* (* 5.0 _a_0_) l_1_1_26)) ?x2050) l_1_1_15) (* (* l_1_1_2 _a_0_) _a_0_))))
 (let ((?x1965 (- (- (- (- (- (+ ?x1955 ?x1956) l_1_1_24) l_1_1_28) l_1_1_32) ?x1962) ?x1964)))
 (= (+ ?x1965 ?x1966) 0.0))))))))))))
(assert
 (let ((?x86 (* 15.0 l_1_1_9)))
 (let ((?x1825 (* 100.0 l_1_1_4)))
 (let ((?x92 (* l_1_1_35 l_1_1_35)))
 (let ((?x93 (* l_1_1_34 l_1_1_34)))
 (let ((?x1829 (* 15.0 l_1_1_3)))
 (let ((?x1879 (* _a_3_ l_1_1_21)))
 (let ((?x1836 (- (- (- (* (- _a_3_) l_1_1_14) (* _a_3_ l_1_1_16)) ?x1879) (* l_1_1_1 (- _a_1_ (* 5.0 _a_3_))))))
 (let ((?x104 (- (- (- ?x1836 (* l_1_1_10 (- _a_0_ (* 10.0 _a_1_)))) l_1_1_11) (* l_1_1_2 (+ (* (* 2.0 _a_0_) _a_3_) (* _a_1_ _a_1_))))))
 (let ((?x1830 (- (- (- ?x104 l_1_1_22) (* l_1_1_26 (- _a_1_ (* 5.0 _a_3_)))) (* l_1_1_29 (- _a_0_ (* 10.0 _a_1_))))))
 (let ((?x1824 (- (- (- (- (- (+ ?x1830 ?x1829) l_1_1_31) ?x93) ?x92) ?x1825) l_1_1_5)))
 (= (- (+ ?x1824 ?x86) (/ 5.0 2.0)) 0.0))))))))))))
(assert
 (let ((?x102 (* 50.0 l_1_1_9)))
 (let ((?x1439 (* 10.0 l_1_1_5)))
 (let ((?x96 (* 10.0 l_1_1_31)))
 (let ((?x1151 (* 50.0 l_1_1_3)))
 (let ((?x1429 (* 10.0 l_1_1_22)))
 (let ((?x1425 (* 10.0 l_1_1_11)))
 (let ((?x1507 (* _a_1_ l_1_1_21)))
 (let ((?x1506 (* _a_1_ l_1_1_16)))
 (let ((?x1505 (* _a_1_ l_1_1_14)))
 (let ((?x1501 (+ (* (* (* (- 2.0) _a_0_) _a_1_) l_1_1_2) (* (* 10.0 _a_0_) l_1_1_10))))
 (let ((?x1508 (- (- (- (+ ?x1501 (* (* 10.0 _a_0_) l_1_1_29)) ?x1505) ?x1506) ?x1507)))
 (let ((?x1428 (- (+ (- ?x1508 (* l_1_1_1 (- _a_0_ (* 5.0 _a_1_)))) ?x1425) l_1_1_13)))
 (let ((?x1433 (- (- (+ ?x1428 ?x1429) l_1_1_23) (* l_1_1_26 (- _a_0_ (* 5.0 _a_1_))))))
 (let ((?x1440 (+ (- (+ (- ?x1433 ?x1151) ?x96) (* (* 2.0 l_1_1_33) l_1_1_34)) ?x1439)))
 (= (- (- (- ?x1440 l_1_1_8) ?x102) 4.0) 0.0))))))))))))))))
(assert
 (let ((?x1127 (* 10.0 l_1_1_7)))
 (let ((?x1125 (* 10.0 l_1_1_6)))
 (let ((?x1161 (* 50.0 l_1_1_27)))
 (let ((?x1159 (* 50.0 l_1_1_25)))
 (let ((?x1156 (* 10.0 l_1_1_17)))
 (let ((?x1150 (* _a_2_ l_1_1_21)))
 (let ((?x1147 (* _a_2_ l_1_1_16)))
 (let ((?x1145 (* _a_2_ l_1_1_14)))
 (let ((?x1217 (+ (* (* (* (- 2.0) _a_0_) _a_2_) l_1_1_2) (* (* 10.0 _a_0_) l_1_1_20))))
 (let ((?x1144 (+ (+ ?x1217 (* (* 10.0 _a_0_) l_1_1_30)) (* (* 5.0 _a_2_) l_1_1_1))))
 (let ((?x1155 (+ (- (- (- ?x1144 ?x1145) ?x1147) ?x1150) (* (* 5.0 _a_2_) l_1_1_26))))
 (let ((?x1124 (- (- (- (+ ?x1155 ?x1156) ?x1159) ?x1161) (* (* 2.0 l_1_1_33) l_1_1_36))))
 (= (+ (+ (+ ?x1124 ?x1125) ?x1127) 1.0) 0.0))))))))))))))
(assert
 (let ((?x55 (* 10.0 l_1_1_27)))
 (let ((?x903 (* 10.0 l_1_1_25)))
 (let ((?x1047 (* 100.0 l_1_1_19)))
 (let ((?x719 (* 100.0 l_1_1_12)))
 (let ((?x50 (* _a_2_ l_1_1_26)))
 (let ((?x62 (* _a_2_ l_1_1_1)))
 (let ((?x1079 (+ (* (* (* (- 2.0) _a_1_) _a_2_) l_1_1_2) (* (* 10.0 _a_1_) l_1_1_20))))
 (let ((?x716 (+ (- (+ ?x1079 (* (* 10.0 _a_1_) l_1_1_30)) ?x62) (* (* 10.0 _a_2_) l_1_1_10))))
 (let ((?x54 (- (- (+ (- ?x716 ?x50) (* (* 10.0 _a_2_) l_1_1_29)) ?x719) ?x1047)))
 (let ((?x845 (- (- (+ (+ ?x54 ?x903) ?x55) (* (* 2.0 l_1_1_34) l_1_1_36)) (* (* 2.0 l_1_1_35) l_1_1_37))))
 (= ?x845 0.0))))))))))))
(assert
 (let ((?x920 (* 20.0 l_1_1_4)))
 (let ((?x1693 (* _a_3_ l_1_1_26)))
 (let ((?x1692 (* _a_3_ l_1_1_1)))
 (let ((?x915 (- (- (- (* (* (* (- 2.0) _a_1_) _a_3_) l_1_1_2) ?x1692) ?x1693) (* l_1_1_10 (- _a_1_ (* 10.0 _a_3_))))))
 (let ((?x921 (+ (- (- ?x915 (* l_1_1_29 (- _a_1_ (* 10.0 _a_3_)))) l_1_1_3) ?x920)))
 (= (- ?x921 l_1_1_9) 0.0)))))))
(assert
 (let ((?x641 (* l_1_1_38 l_1_1_38)))
 (let ((?x637 (* l_1_1_37 l_1_1_37)))
 (let ((?x479 (* l_1_1_36 l_1_1_36)))
 (let ((?x740 (* 5.0 l_1_1_27)))
 (let ((?x738 (* 5.0 l_1_1_25)))
 (let ((?x66 (- (- (- l_1_1_17) (* 100.0 l_1_1_18)) (* (* l_1_1_2 _a_2_) _a_2_))))
 (let ((?x741 (+ (+ (- ?x66 (* l_1_1_20 (- _a_0_ (* 10.0 _a_2_)))) ?x738) ?x740)))
 (let ((?x640 (- (- (- ?x741 (* l_1_1_30 (- _a_0_ (* 10.0 _a_2_)))) ?x479) ?x637)))
 (= (- (- (- ?x640 ?x641) l_1_1_6) l_1_1_7) 0.0))))))))))
(assert
 (let ((?x463 (* 10.0 l_1_1_19)))
 (let ((?x461 (* 10.0 l_1_1_12)))
 (let ((?x470 (* _a_2_ l_1_1_29)))
 (let ((?x1024 (* _a_2_ l_1_1_10)))
 (let ((?x456 (+ (- (- (* (* (* (- 2.0) _a_2_) _a_3_) l_1_1_2) ?x1024) ?x470) (* (* 10.0 _a_3_) l_1_1_20))))
 (= (+ (+ (+ ?x456 (* (* 10.0 _a_3_) l_1_1_30)) ?x461) ?x463) 0.0)))))))
(assert
 (let ((?x15 (- (- (* (- _a_3_) l_1_1_10) (* _a_3_ l_1_1_29)) (* (* l_1_1_2 _a_3_) _a_3_))))
 (= (- ?x15 l_1_1_4) 0.0)))
(assert
 (let ((?x463 (* 10.0 l_1_1_19)))
 (let ((?x461 (* 10.0 l_1_1_12)))
 (let ((?x424 (+ (+ (- (* (- _a_1_) l_1_1_20) (* _a_1_ l_1_1_30)) ?x461) ?x463)))
 (= (- (- ?x424 l_1_1_25) l_1_1_27) 0.0)))))
(assert
 (let ((?x19 (- (- (- (* (- _a_3_) l_1_1_20) (* _a_3_ l_1_1_30)) l_1_1_12) l_1_1_19)))
 (= ?x19 0.0)))
(assert
 (let ((?x345 (+ (- (* (- _a_2_) l_1_1_20) (* _a_2_ l_1_1_30)) (* 20.0 l_1_1_18))))
 (= ?x345 0.0)))
(assert
 (= (- l_1_1_18) 0.0))
(assert
 (>= l_1_1_1 0.0))
(assert
 (>= l_1_1_2 0.0))
(assert
 (>= l_1_1_3 0.0))
(assert
 (>= l_1_1_4 0.0))
(assert
 (>= l_1_1_5 0.0))
(assert
 (>= l_1_1_6 0.0))
(assert
 (>= l_1_1_7 0.0))
(assert
 (>= l_1_1_8 0.0))
(assert
 (>= l_1_1_9 0.0))
(assert
 (>= l_1_1_10 0.0))
(assert
 (>= l_1_1_11 0.0))
(assert
 (>= l_1_1_12 0.0))
(assert
 (>= l_1_1_13 0.0))
(assert
 (>= l_1_1_14 0.0))
(assert
 (>= l_1_1_15 0.0))
(assert
 (>= l_1_1_16 0.0))
(assert
 (>= l_1_1_17 0.0))
(assert
 (>= l_1_1_18 0.0))
(assert
 (>= l_1_1_19 0.0))
(assert
 (>= l_1_1_20 0.0))
(assert
 (>= l_1_1_21 0.0))
(assert
 (>= l_1_1_22 0.0))
(assert
 (>= l_1_1_23 0.0))
(assert
 (>= l_1_1_24 0.0))
(assert
 (>= l_1_1_25 0.0))
(assert
 (>= l_1_1_26 0.0))
(assert
 (>= l_1_1_27 0.0))
(assert
 (>= l_1_1_28 0.0))
(assert
 (>= l_1_1_29 0.0))
(assert
 (>= l_1_1_30 0.0))
(assert
 (>= l_1_1_31 0.0))
(assert
 (>= l_1_1_32 0.0))
(assert
 (>= l_1_1_33 0.0))
(assert
 (>= l_1_1_35 0.0))
(assert
 (>= l_1_1_38 0.0))
(assert
 (let ((?x175 (* 25.0 l_1_2_7)))
 (let ((?x136 (* l_1_2_45 l_1_2_45)))
 (let ((?x165 (* 5.0 l_1_2_41)))
 (let ((?x161 (* 5.0 l_1_2_40)))
 (let ((?x184 (* 5.0 l_1_2_3)))
 (let ((?x182 (* 5.0 l_1_2_25)))
 (let ((?x208 (* 5.0 l_1_2_23)))
 (let ((?x203 (* _a_0_ l_1_2_43)))
 (let ((?x199 (* _a_0_ l_1_2_27)))
 (let ((?x240 (* _a_0_ l_1_2_26)))
 (let ((?x238 (* _a_0_ l_1_2_21)))
 (let ((?x241 (- (- (- (* (* 5.0 _a_0_) l_1_2_10) (* _a_0_ l_1_2_19)) ?x238) ?x240)))
 (let ((?x205 (- (- (+ (- ?x241 ?x199) (* (* 5.0 _a_0_) l_1_2_28)) ?x203) l_1_2_1)))
 (let ((?x185 (- (+ (+ (+ (- (- ?x205 l_1_2_15) l_1_2_16) ?x208) ?x182) ?x184) l_1_2_34)))
 (let ((?x169 (- (+ (+ (- (- ?x185 l_1_2_35) l_1_2_38) ?x161) ?x165) (* (* l_1_2_42 _a_0_) _a_0_))))
 (= (- (- (- (- ?x169 l_1_2_44) ?x136) l_1_2_6) ?x175) 0.0)))))))))))))))))
(assert
 (let ((?x248 (* 50.0 l_1_2_33)))
 (let ((?x243 (* 10.0 l_1_2_32)))
 (let ((?x1477 (* 10.0 l_1_2_30)))
 (let ((?x1463 (* 50.0 l_1_2_24)))
 (let ((?x1457 (* 10.0 l_1_2_14)))
 (let ((?x1454 (* 10.0 l_1_2_13)))
 (let ((?x1452 (* 10.0 l_1_2_12)))
 (let ((?x1450 (* _a_2_ l_1_2_43)))
 (let ((?x1466 (* _a_2_ l_1_2_27)))
 (let ((?x1398 (* _a_2_ l_1_2_26)))
 (let ((?x2371 (* _a_2_ l_1_2_21)))
 (let ((?x2368 (* _a_2_ l_1_2_19)))
 (let ((?x2350 (+ (* (* (* (- 2.0) _a_0_) _a_2_) l_1_2_42) (* (* 10.0 _a_0_) l_1_2_22))))
 (let ((?x2374 (+ (+ ?x2350 (* (* 10.0 _a_0_) l_1_2_37)) (* (* 5.0 _a_2_) l_1_2_10))))
 (let ((?x1475 (+ (- (- (- (- ?x2374 ?x2368) ?x2371) ?x1398) ?x1466) (* (* 5.0 _a_2_) l_1_2_28))))
 (let ((?x244 (+ (+ (- (+ (+ (+ (- ?x1475 ?x1450) ?x1452) ?x1454) ?x1457) ?x1463) ?x1477) ?x243)))
 (= (- (- (- ?x244 ?x248) (* (* 2.0 l_1_2_45) l_1_2_48)) 1.0) 0.0))))))))))))))))))
(assert
 (let ((?x2177 (* 15.0 l_1_2_8)))
 (let ((?x2153 (* l_1_2_47 l_1_2_47)))
 (let ((?x2147 (* l_1_2_46 l_1_2_46)))
 (let ((?x2142 (* 100.0 l_1_2_39)))
 (let ((?x1238 (* 15.0 l_1_2_20)))
 (let ((?x1576 (* _a_3_ l_1_2_43)))
 (let ((?x1575 (* _a_3_ l_1_2_27)))
 (let ((?x1565 (* _a_3_ l_1_2_26)))
 (let ((?x1571 (- (- (- (* (- _a_3_) l_1_2_19) (* _a_3_ l_1_2_21)) ?x1565) ?x1575)))
 (let ((?x1240 (- (- (- ?x1571 ?x1576) (* l_1_2_10 (- _a_1_ (* 5.0 _a_3_)))) l_1_2_11)))
 (let ((?x1237 (- (- (- ?x1240 l_1_2_17) (* l_1_2_18 (- _a_0_ (* 10.0 _a_1_)))) l_1_2_2)))
 (let ((?x2183 (- (- (+ ?x1237 ?x1238) (* l_1_2_28 (- _a_1_ (* 5.0 _a_3_)))) l_1_2_36)))
 (let ((?x2146 (- (- (- ?x2183 ?x2142) l_1_2_4) (* l_1_2_42 (+ (* (* 2.0 _a_0_) _a_3_) (* _a_1_ _a_1_))))))
 (let ((?x2171 (- (- (- ?x2146 ?x2147) ?x2153) (* l_1_2_5 (- _a_0_ (* 10.0 _a_1_))))))
 (= (+ (+ (- ?x2171 l_1_2_7) ?x2177) (/ 7.0 2.0)) 0.0))))))))))))))))
(assert
 (let ((?x1513 (* 50.0 l_1_2_8)))
 (let ((?x1518 (* 10.0 l_1_2_7)))
 (let ((?x2460 (* 10.0 l_1_2_4)))
 (let ((?x2458 (* 10.0 l_1_2_36)))
 (let ((?x2282 (* 50.0 l_1_2_20)))
 (let ((?x2268 (* 10.0 l_1_2_2)))
 (let ((?x2267 (* 10.0 l_1_2_17)))
 (let ((?x2261 (* 10.0 l_1_2_11)))
 (let ((?x2152 (* _a_1_ l_1_2_43)))
 (let ((?x2150 (* _a_1_ l_1_2_27)))
 (let ((?x2154 (* _a_1_ l_1_2_26)))
 (let ((?x211 (* _a_1_ l_1_2_21)))
 (let ((?x1598 (* _a_1_ l_1_2_19)))
 (let ((?x1595 (+ (* (* (* (- 2.0) _a_0_) _a_1_) l_1_2_42) (* (* 10.0 _a_0_) l_1_2_18))))
 (let ((?x2148 (- (- (- (+ ?x1595 (* (* 10.0 _a_0_) l_1_2_5)) ?x1598) ?x211) ?x2154)))
 (let ((?x2260 (- (- (- ?x2148 ?x2150) ?x2152) (* l_1_2_10 (- _a_0_ (* 5.0 _a_1_))))))
 (let ((?x2279 (- (- (- (+ (+ (+ ?x2260 ?x2261) ?x2267) ?x2268) ?x2282) l_1_2_23) l_1_2_25)))
 (let ((?x2459 (+ (- (- ?x2279 (* l_1_2_28 (- _a_0_ (* 5.0 _a_1_)))) l_1_2_3) ?x2458)))
 (let ((?x1515 (- (- (- (+ ?x2459 ?x2460) l_1_2_40) l_1_2_41) (* (* 2.0 l_1_2_45) l_1_2_46))))
 (= (+ (- (+ ?x1515 ?x1518) ?x1513) 3.0) 0.0)))))))))))))))))))))
(assert
 (let ((?x1718 (* 20.0 l_1_2_39)))
 (let ((?x760 (* _a_3_ l_1_2_28)))
 (let ((?x2207 (* _a_3_ l_1_2_10)))
 (let ((?x1722 (- (- (- (* (* (* (- 2.0) _a_1_) _a_3_) l_1_2_42) ?x2207) ?x760) (* l_1_2_18 (- _a_1_ (* 10.0 _a_3_))))))
 (let ((?x1724 (- (+ (- ?x1722 l_1_2_20) ?x1718) (* l_1_2_5 (- _a_1_ (* 10.0 _a_3_))))))
 (= (- ?x1724 l_1_2_8) 0.0)))))))
(assert
 (let ((?x1103 (* 100.0 l_1_2_9)))
 (let ((?x1404 (* 10.0 l_1_2_33)))
 (let ((?x2091 (* 100.0 l_1_2_29)))
 (let ((?x2094 (* 10.0 l_1_2_24)))
 (let ((?x618 (* _a_2_ l_1_2_28)))
 (let ((?x1067 (* _a_2_ l_1_2_10)))
 (let ((?x762 (+ (* (* (* (- 2.0) _a_1_) _a_2_) l_1_2_42) (* (* 10.0 _a_1_) l_1_2_22))))
 (let ((?x941 (+ (- (+ ?x762 (* (* 10.0 _a_1_) l_1_2_37)) ?x1067) (* (* 10.0 _a_2_) l_1_2_18))))
 (let ((?x2092 (- (+ (+ (- ?x941 ?x618) (* (* 10.0 _a_2_) l_1_2_5)) ?x2094) ?x2091)))
 (let ((?x1104 (- (- (+ ?x2092 ?x1404) (* (* 2.0 l_1_2_46) l_1_2_48)) (* (* 2.0 l_1_2_47) l_1_2_49))))
 (= (- ?x1104 ?x1103) 0.0))))))))))))
(assert
 (let ((?x986 (* 10.0 l_1_2_9)))
 (let ((?x1986 (* 10.0 l_1_2_29)))
 (let ((?x543 (* _a_2_ l_1_2_5)))
 (let ((?x856 (* _a_2_ l_1_2_18)))
 (let ((?x1982 (+ (- (- (* (* (* (- 2.0) _a_2_) _a_3_) l_1_2_42) ?x856) ?x543) (* (* 10.0 _a_3_) l_1_2_22))))
 (= (+ (+ (+ ?x1982 (* (* 10.0 _a_3_) l_1_2_37)) ?x1986) ?x986) 0.0)))))))
(assert
 (let ((?x2414 (- (- (- (* (- _a_3_) l_1_2_18) (* _a_3_ l_1_2_5)) l_1_2_39) (* (* l_1_2_42 _a_3_) _a_3_))))
 (= ?x2414 0.0)))
(assert
 (let ((?x986 (* 10.0 l_1_2_9)))
 (let ((?x1986 (* 10.0 l_1_2_29)))
 (let ((?x1905 (+ (- (- (* (- _a_1_) l_1_2_22) (* _a_1_ l_1_2_37)) l_1_2_24) ?x1986)))
 (= (+ (- ?x1905 l_1_2_33) ?x986) 0.0)))))
(assert
 (let ((?x2356 (- (- (- (* (- _a_3_) l_1_2_22) (* _a_3_ l_1_2_37)) l_1_2_29) l_1_2_9)))
 (= ?x2356 0.0)))
(assert
 (let ((?x2105 (* l_1_2_50 l_1_2_50)))
 (let ((?x1641 (* l_1_2_49 l_1_2_49)))
 (let ((?x2385 (* l_1_2_48 l_1_2_48)))
 (let ((?x1137 (* 5.0 l_1_2_33)))
 (let ((?x2175 (* 100.0 l_1_2_31)))
 (let ((?x2178 (* 5.0 l_1_2_24)))
 (let ((?x2164 (- (- (- (- l_1_2_12) l_1_2_13) l_1_2_14) (* l_1_2_22 (- _a_0_ (* 10.0 _a_2_))))))
 (let ((?x1601 (- (+ (- (- (- (+ ?x2164 ?x2178) l_1_2_30) ?x2175) l_1_2_32) ?x1137) (* l_1_2_37 (- _a_0_ (* 10.0 _a_2_))))))
 (let ((?x2111 (- (- (- (- ?x1601 (* (* l_1_2_42 _a_2_) _a_2_)) ?x2385) ?x1641) ?x2105)))
 (= ?x2111 0.0)))))))))))
(assert
 (let ((?x1255 (* 20.0 l_1_2_31)))
 (= (+ (- (* (- _a_2_) l_1_2_22) (* _a_2_ l_1_2_37)) ?x1255) 0.0)))
(assert
 (= (- l_1_2_31) 0.0))
(assert
 (>= l_1_2_1 0.0))
(assert
 (>= l_1_2_2 0.0))
(assert
 (>= l_1_2_3 0.0))
(assert
 (>= l_1_2_4 0.0))
(assert
 (>= l_1_2_5 0.0))
(assert
 (>= l_1_2_6 0.0))
(assert
 (>= l_1_2_7 0.0))
(assert
 (>= l_1_2_8 0.0))
(assert
 (>= l_1_2_9 0.0))
(assert
 (>= l_1_2_10 0.0))
(assert
 (>= l_1_2_11 0.0))
(assert
 (>= l_1_2_12 0.0))
(assert
 (>= l_1_2_13 0.0))
(assert
 (>= l_1_2_14 0.0))
(assert
 (>= l_1_2_15 0.0))
(assert
 (>= l_1_2_16 0.0))
(assert
 (>= l_1_2_17 0.0))
(assert
 (>= l_1_2_18 0.0))
(assert
 (>= l_1_2_19 0.0))
(assert
 (>= l_1_2_20 0.0))
(assert
 (>= l_1_2_21 0.0))
(assert
 (>= l_1_2_22 0.0))
(assert
 (>= l_1_2_23 0.0))
(assert
 (>= l_1_2_24 0.0))
(assert
 (>= l_1_2_25 0.0))
(assert
 (>= l_1_2_26 0.0))
(assert
 (>= l_1_2_27 0.0))
(assert
 (>= l_1_2_28 0.0))
(assert
 (>= l_1_2_29 0.0))
(assert
 (>= l_1_2_30 0.0))
(assert
 (>= l_1_2_31 0.0))
(assert
 (>= l_1_2_32 0.0))
(assert
 (>= l_1_2_33 0.0))
(assert
 (>= l_1_2_34 0.0))
(assert
 (>= l_1_2_35 0.0))
(assert
 (>= l_1_2_36 0.0))
(assert
 (>= l_1_2_37 0.0))
(assert
 (>= l_1_2_38 0.0))
(assert
 (>= l_1_2_39 0.0))
(assert
 (>= l_1_2_40 0.0))
(assert
 (>= l_1_2_41 0.0))
(assert
 (>= l_1_2_42 0.0))
(assert
 (>= l_1_2_43 0.0))
(assert
 (>= l_1_2_44 0.0))
(assert
 (>= l_1_2_45 0.0))
(assert
 (>= l_1_2_47 0.0))
(assert
 (>= l_1_2_50 0.0))
(assert
 (let ((?x1860 (* 5.0 l_1_3_4)))
 (let ((?x2265 (* l_1_3_33 l_1_3_33)))
 (let ((?x678 (* 5.0 l_1_3_29)))
 (let ((?x1374 (* 5.0 l_1_3_23)))
 (let ((?x1376 (* 25.0 l_1_3_14)))
 (let ((?x193 (* (/ 11.0 2.0) _a_2_)))
 (let ((?x2420 (* _a_0_ l_1_3_25)))
 (let ((?x884 (- (- (- (* (- _a_0_) l_1_3_11) (* _a_0_ l_1_3_17)) ?x2420) (* (* 5.0 _a_0_) l_1_3_6))))
 (let ((?x190 (+ (+ (- ?x884 (* (* 5.0 _a_0_) l_1_3_9)) _a_0_) (* 1.0 _a_1_))))
 (let ((?x1372 (- (- (- (+ (+ ?x190 ?x193) (* 1.0 _a_3_)) l_1_3_12) ?x1376) l_1_3_18)))
 (let ((?x1856 (- (- (- (- (- (- ?x1372 l_1_3_21) ?x1374) ?x678) l_1_3_32) ?x2265) ?x1860)))
 (= (- ?x1856 (* (* l_1_3_8 _a_0_) _a_0_)) 0.0)))))))))))))
(assert
 (let ((?x1467 (* 10.0 l_1_3_5)))
 (let ((?x584 (* 10.0 l_1_3_31)))
 (let ((?x2310 (* 50.0 l_1_3_22)))
 (let ((?x588 (* 50.0 l_1_3_2)))
 (let ((?x591 (* 10.0 l_1_3_14)))
 (let ((?x585 (* 10.0 l_1_3_10)))
 (let ((?x1098 (* 2.0 _a_3_)))
 (let ((?x193 (* (/ 11.0 2.0) _a_2_)))
 (let ((?x2218 (* _a_1_ l_1_3_25)))
 (let ((?x2103 (* _a_1_ l_1_3_17)))
 (let ((?x871 (* _a_1_ l_1_3_11)))
 (let ((?x849 (- (* (* (* (- 2.0) _a_0_) _a_1_) l_1_3_8) (* (* 10.0 _a_0_) l_1_3_15))))
 (let ((?x2220 (- (- (- (- ?x849 (* (* 10.0 _a_0_) l_1_3_20)) ?x871) ?x2103) ?x2218)))
 (let ((?x2306 (- (- (+ (- (+ (+ (+ ?x2220 _a_1_) ?x193) ?x1098) ?x585) ?x591) ?x588) ?x2310)))
 (let ((?x2086 (- (- (+ (+ ?x2306 l_1_3_23) l_1_3_29) ?x584) (* (* 2.0 l_1_3_33) l_1_3_34))))
 (let ((?x875 (- (- (+ ?x2086 l_1_3_4) ?x1467) (* l_1_3_6 (+ (- _a_0_) (* 5.0 _a_1_))))))
 (= (- ?x875 (* l_1_3_9 (+ (- _a_0_) (* 5.0 _a_1_)))) 0.0))))))))))))))))))
(assert
 (let ((?x2232 (* 50.0 l_1_3_30)))
 (let ((?x2311 (* 50.0 l_1_3_28)))
 (let ((?x2436 (* 10.0 l_1_3_27)))
 (let ((?x2446 (* 10.0 l_1_3_24)))
 (let ((?x2463 (* 10.0 l_1_3_13)))
 (let ((?x2488 (* _a_2_ l_1_3_25)))
 (let ((?x2495 (* _a_2_ l_1_3_17)))
 (let ((?x1284 (* _a_2_ l_1_3_11)))
 (let ((?x1173 (- (* (* (* (- 2.0) _a_0_) _a_2_) l_1_3_8) (* (* 10.0 _a_0_) l_1_3_1))))
 (let ((?x2489 (- (- (- (- ?x1173 (* (* 10.0 _a_0_) l_1_3_3)) ?x1284) ?x2495) ?x2488)))
 (let ((?x2461 (- (- ?x2489 (* (* 5.0 _a_2_) l_1_3_6)) (* (* 5.0 _a_2_) l_1_3_9))))
 (let ((?x2021 (- (- (- (- (- (- (+ ?x2461 _a_2_) ?x2463) ?x2446) ?x2436) ?x2311) ?x2232) (* (* 2.0 l_1_3_33) l_1_3_36))))
 (= ?x2021 0.0))))))))))))))
(assert
 (let ((?x894 (* l_1_3_35 l_1_3_35)))
 (let ((?x972 (* l_1_3_34 l_1_3_34)))
 (let ((?x969 (* 15.0 l_1_3_22)))
 (let ((?x1002 (* 15.0 l_1_3_2)))
 (let ((?x1000 (* 100.0 l_1_3_16)))
 (let ((?x1092 (* _a_3_ l_1_3_25)))
 (let ((?x1077 (+ (- (- (* (- _a_3_) l_1_3_11) (* _a_3_ l_1_3_17)) ?x1092) _a_3_)))
 (let ((?x999 (- (- (+ ?x1077 l_1_3_10) l_1_3_14) (* l_1_3_15 (+ (- _a_0_) (* 10.0 _a_1_))))))
 (let ((?x968 (- (+ (- ?x999 ?x1000) ?x1002) (* l_1_3_20 (+ (- _a_0_) (* 10.0 _a_1_))))))
 (let ((?x899 (- (+ (- (- (+ (+ ?x968 ?x969) l_1_3_31) ?x972) ?x894) l_1_3_5) (* l_1_3_6 (+ (- _a_1_) (* 5.0 _a_3_))))))
 (let ((?x821 (- ?x899 (* l_1_3_8 (+ (* (* 2.0 _a_0_) _a_3_) (* _a_1_ _a_1_))))))
 (= (- ?x821 (* l_1_3_9 (+ (- _a_1_) (* 5.0 _a_3_)))) 0.0)))))))))))))
(assert
 (let ((?x2590 (* 100.0 l_1_3_7)))
 (let ((?x2582 (* 10.0 l_1_3_30)))
 (let ((?x2580 (* 10.0 l_1_3_28)))
 (let ((?x2578 (* 100.0 l_1_3_19)))
 (let ((?x1609 (* _a_2_ l_1_3_9)))
 (let ((?x1683 (* _a_2_ l_1_3_6)))
 (let ((?x2569 (- (* (* (* (- 2.0) _a_1_) _a_2_) l_1_3_8) (* (* 10.0 _a_1_) l_1_3_1))))
 (let ((?x2573 (- (- ?x2569 (* (* 10.0 _a_1_) l_1_3_3)) (* (* 10.0 _a_2_) l_1_3_15))))
 (let ((?x2579 (- (+ (+ (- ?x2573 (* (* 10.0 _a_2_) l_1_3_20)) ?x1683) ?x1609) ?x2578)))
 (let ((?x2589 (- (- (+ (+ ?x2579 ?x2580) ?x2582) (* (* 2.0 l_1_3_34) l_1_3_36)) (* (* 2.0 l_1_3_35) l_1_3_37))))
 (= (- ?x2589 ?x2590) 0.0))))))))))))
(assert
 (let ((?x2660 (* l_1_3_38 l_1_3_38)))
 (let ((?x2658 (* l_1_3_37 l_1_3_37)))
 (let ((?x2656 (* l_1_3_36 l_1_3_36)))
 (let ((?x2654 (* 5.0 l_1_3_30)))
 (let ((?x2650 (* 5.0 l_1_3_28)))
 (let ((?x2647 (* 100.0 l_1_3_26)))
 (let ((?x2646 (+ (+ (* (- l_1_3_1) (+ (- _a_0_) (* 10.0 _a_2_))) l_1_3_13) l_1_3_24)))
 (let ((?x2653 (- (+ (+ (- ?x2646 ?x2647) l_1_3_27) ?x2650) (* l_1_3_3 (+ (- _a_0_) (* 10.0 _a_2_))))))
 (let ((?x2664 (- (- (- (- (+ ?x2653 ?x2654) ?x2656) ?x2658) ?x2660) (* (* l_1_3_8 _a_2_) _a_2_))))
 (= ?x2664 0.0)))))))))))
(assert
 (let ((?x2722 (* 10.0 l_1_3_7)))
 (let ((?x2720 (* 10.0 l_1_3_19)))
 (let ((?x2613 (* _a_2_ l_1_3_20)))
 (let ((?x2607 (* _a_2_ l_1_3_15)))
 (let ((?x2717 (- (+ (+ (* (* (* (- 2.0) _a_2_) _a_3_) l_1_3_8) ?x2607) ?x2613) (* (* 10.0 _a_3_) l_1_3_1))))
 (= (+ (+ (- ?x2717 (* (* 10.0 _a_3_) l_1_3_3)) ?x2720) ?x2722) 0.0)))))))
(assert
 (let ((?x2722 (* 10.0 l_1_3_7)))
 (let ((?x2720 (* 10.0 l_1_3_19)))
 (let ((?x2744 (- (+ (+ (* _a_1_ l_1_3_1) (* _a_1_ l_1_3_3)) ?x2720) l_1_3_28)))
 (= (+ (- ?x2744 l_1_3_30) ?x2722) 0.0)))))
(assert
 (let ((?x2763 (* 20.0 l_1_3_26)))
 (= (+ (+ (* _a_2_ l_1_3_1) (* _a_2_ l_1_3_3)) ?x2763) 0.0)))
(assert
 (let ((?x2770 (- (- (+ (* _a_3_ l_1_3_1) (* _a_3_ l_1_3_3)) l_1_3_19) l_1_3_7)))
 (= ?x2770 0.0)))
(assert
 (let ((?x2788 (* 20.0 l_1_3_16)))
 (let ((?x2555 (* _a_3_ l_1_3_9)))
 (let ((?x2520 (* _a_3_ l_1_3_6)))
 (let ((?x2787 (- (+ (+ (* (* (* (- 2.0) _a_1_) _a_3_) l_1_3_8) ?x2520) ?x2555) (* l_1_3_15 (+ (- _a_1_) (* 10.0 _a_3_))))))
 (let ((?x2792 (- (- (+ ?x2787 ?x2788) l_1_3_2) (* l_1_3_20 (+ (- _a_1_) (* 10.0 _a_3_))))))
 (= (- ?x2792 l_1_3_22) 0.0)))))))
(assert
 (let ((?x2847 (- (- (+ (* _a_3_ l_1_3_15) (* _a_3_ l_1_3_20)) l_1_3_16) (* (* l_1_3_8 _a_3_) _a_3_))))
 (= ?x2847 0.0)))
(assert
 (= (- l_1_3_26) 0.0))
(assert
 (>= l_1_3_1 0.0))
(assert
 (>= l_1_3_2 0.0))
(assert
 (>= l_1_3_3 0.0))
(assert
 (>= l_1_3_4 0.0))
(assert
 (>= l_1_3_5 0.0))
(assert
 (>= l_1_3_6 0.0))
(assert
 (>= l_1_3_7 0.0))
(assert
 (>= l_1_3_8 0.0))
(assert
 (>= l_1_3_9 0.0))
(assert
 (>= l_1_3_10 0.0))
(assert
 (>= l_1_3_11 0.0))
(assert
 (>= l_1_3_12 0.0))
(assert
 (>= l_1_3_13 0.0))
(assert
 (>= l_1_3_14 0.0))
(assert
 (>= l_1_3_15 0.0))
(assert
 (>= l_1_3_16 0.0))
(assert
 (>= l_1_3_17 0.0))
(assert
 (>= l_1_3_18 0.0))
(assert
 (>= l_1_3_19 0.0))
(assert
 (>= l_1_3_20 0.0))
(assert
 (>= l_1_3_21 0.0))
(assert
 (>= l_1_3_22 0.0))
(assert
 (>= l_1_3_23 0.0))
(assert
 (>= l_1_3_24 0.0))
(assert
 (>= l_1_3_25 0.0))
(assert
 (>= l_1_3_26 0.0))
(assert
 (>= l_1_3_27 0.0))
(assert
 (>= l_1_3_28 0.0))
(assert
 (>= l_1_3_29 0.0))
(assert
 (>= l_1_3_30 0.0))
(assert
 (>= l_1_3_31 0.0))
(assert
 (>= l_1_3_32 0.0))
(assert
 (>= l_1_3_33 0.0))
(assert
 (>= l_1_3_35 0.0))
(assert
 (>= l_1_3_38 0.0))
(check-sat)
(get-model)